Maximize
 0
Subject To
 epc_0!1: -31.6922445730968 y_1!1_2!1 -62.7390994969955 y_1!2_2!1 +34.94675547518614 y_1!3_2!1 -54.567495099232666 y_1!4_2!1 -40.03553400362823 y_1!1_2!2 -72.08344619868754 y_1!2_2!2 +99.44963689548891 y_1!3_2!2 +79.99275340499207 y_1!4_2!2 -66.74100465729609 y_1!1_2!3 -70.13987396567907 y_1!2_2!3 -57.3142029997866 y_1!3_2!3 +38.064632466730785 y_1!4_2!3 +3.326152021560077 y_1!1_2!4 -13.266106141076179 y_1!2_2!4 -95.13813196481338 y_1!3_2!4 -4.662184548186701 y_1!4_2!4 + lambda_0!1 - mu_0 = 0
 epc_0!2: -43.779660759805175 y_1!1_2!1 +95.8790657235273 y_1!2_2!1 +0.05845150787619957 y_1!3_2!1 +50.906234572353725 y_1!4_2!1 +5.600383306129359 y_1!1_2!2 +37.402693648213386 y_1!2_2!2 +97.62700019368617 y_1!3_2!2 -4.755532110322051 y_1!4_2!2 +74.6374224106851 y_1!1_2!3 -50.44775942593927 y_1!2_2!3 +22.590906568791283 y_1!3_2!3 +84.61996022512756 y_1!4_2!3 -52.73557499371017 y_1!1_2!4 +14.193636013205051 y_1!2_2!4 -56.80525565478578 y_1!3_2!4 +91.0688612968408 y_1!4_2!4 + lambda_0!2 - mu_0 = 0
 epc_0!3: -20.834035320517458 y_1!1_2!1 -59.97837784423395 y_1!2_2!1 -92.65969871994726 y_1!3_2!1 +90.44841928060595 y_1!4_2!1 -55.87241652852582 y_1!1_2!2 -27.610548671832063 y_1!2_2!2 -54.38629507301882 y_1!3_2!2 -8.507830268334331 y_1!4_2!2 +33.69883068095561 y_1!1_2!3 +9.431969204944622 y_1!2_2!3 -2.048844759703954 y_1!3_2!3 +36.95858713997609 y_1!4_2!3 -7.849423752169031 y_1!1_2!4 -22.508221513568188 y_1!2_2!4 +99.74111103247415 y_1!3_2!4 -79.51490319920119 y_1!4_2!4 + lambda_0!3 - mu_0 = 0
 epc_0!4: +28.90361634259901 y_1!1_2!1 +58.99223603384763 y_1!2_2!1 -22.437650682872317 y_1!3_2!1 -72.00041090616669 y_1!4_2!1 -92.75865486026808 y_1!1_2!2 +76.30331367986395 y_1!2_2!2 -41.09484547747171 y_1!3_2!2 +42.59344069299044 y_1!4_2!2 +2.4241393258784996 y_1!1_2!3 +66.68098372818062 y_1!2_2!3 -62.729923603926466 y_1!3_2!3 -35.654824460142436 y_1!4_2!3 -44.61780653118665 y_1!1_2!4 +73.33545613043682 y_1!2_2!4 -53.32766246608669 y_1!3_2!4 -24.002979481817576 y_1!4_2!4 + lambda_0!4 - mu_0 = 0
 dc_0: x_0!1 + x_0!2 + x_0!3 + x_0!4 = 1
 bc_0!1: lambda_0!1 +296.7738875673889 x_0!1 <= 296.7738875673889
 bc_0!2: lambda_0!2 +296.7738875673889 x_0!2 <= 296.7738875673889
 bc_0!3: lambda_0!3 +296.7738875673889 x_0!3 <= 296.7738875673889
 bc_0!4: lambda_0!4 +296.7738875673889 x_0!4 <= 296.7738875673889
 sum_0!1: y_1!1_2!1 - x_1!1 - x_2!1 >= -1
 idk_0!1!1: y_1!1_2!1 - x_1!1 <= 0
 idk_0!1!2: y_1!1_2!1 - x_2!1 <= 0
 sum_0!2: y_1!2_2!1 - x_1!2 - x_2!1 >= -1
 idk_0!2!1: y_1!2_2!1 - x_1!2 <= 0
 idk_0!2!2: y_1!2_2!1 - x_2!1 <= 0
 sum_0!3: y_1!3_2!1 - x_1!3 - x_2!1 >= -1
 idk_0!3!1: y_1!3_2!1 - x_1!3 <= 0
 idk_0!3!2: y_1!3_2!1 - x_2!1 <= 0
 sum_0!4: y_1!4_2!1 - x_1!4 - x_2!1 >= -1
 idk_0!4!1: y_1!4_2!1 - x_1!4 <= 0
 idk_0!4!2: y_1!4_2!1 - x_2!1 <= 0
 sum_0!5: y_1!1_2!2 - x_1!1 - x_2!2 >= -1
 idk_0!5!1: y_1!1_2!2 - x_1!1 <= 0
 idk_0!5!2: y_1!1_2!2 - x_2!2 <= 0
 sum_0!6: y_1!2_2!2 - x_1!2 - x_2!2 >= -1
 idk_0!6!1: y_1!2_2!2 - x_1!2 <= 0
 idk_0!6!2: y_1!2_2!2 - x_2!2 <= 0
 sum_0!7: y_1!3_2!2 - x_1!3 - x_2!2 >= -1
 idk_0!7!1: y_1!3_2!2 - x_1!3 <= 0
 idk_0!7!2: y_1!3_2!2 - x_2!2 <= 0
 sum_0!8: y_1!4_2!2 - x_1!4 - x_2!2 >= -1
 idk_0!8!1: y_1!4_2!2 - x_1!4 <= 0
 idk_0!8!2: y_1!4_2!2 - x_2!2 <= 0
 sum_0!9: y_1!1_2!3 - x_1!1 - x_2!3 >= -1
 idk_0!9!1: y_1!1_2!3 - x_1!1 <= 0
 idk_0!9!2: y_1!1_2!3 - x_2!3 <= 0
 sum_0!10: y_1!2_2!3 - x_1!2 - x_2!3 >= -1
 idk_0!10!1: y_1!2_2!3 - x_1!2 <= 0
 idk_0!10!2: y_1!2_2!3 - x_2!3 <= 0
 sum_0!11: y_1!3_2!3 - x_1!3 - x_2!3 >= -1
 idk_0!11!1: y_1!3_2!3 - x_1!3 <= 0
 idk_0!11!2: y_1!3_2!3 - x_2!3 <= 0
 sum_0!12: y_1!4_2!3 - x_1!4 - x_2!3 >= -1
 idk_0!12!1: y_1!4_2!3 - x_1!4 <= 0
 idk_0!12!2: y_1!4_2!3 - x_2!3 <= 0
 sum_0!13: y_1!1_2!4 - x_1!1 - x_2!4 >= -1
 idk_0!13!1: y_1!1_2!4 - x_1!1 <= 0
 idk_0!13!2: y_1!1_2!4 - x_2!4 <= 0
 sum_0!14: y_1!2_2!4 - x_1!2 - x_2!4 >= -1
 idk_0!14!1: y_1!2_2!4 - x_1!2 <= 0
 idk_0!14!2: y_1!2_2!4 - x_2!4 <= 0
 sum_0!15: y_1!3_2!4 - x_1!3 - x_2!4 >= -1
 idk_0!15!1: y_1!3_2!4 - x_1!3 <= 0
 idk_0!15!2: y_1!3_2!4 - x_2!4 <= 0
 sum_0!16: y_1!4_2!4 - x_1!4 - x_2!4 >= -1
 idk_0!16!1: y_1!4_2!4 - x_1!4 <= 0
 idk_0!16!2: y_1!4_2!4 - x_2!4 <= 0
 epc_1!1: +38.047759705567955 y_0!1_2!1 -9.825297081438492 y_0!2_2!1 -81.487017799873 y_0!3_2!1 -3.282339548655571 y_0!4_2!1 +29.21389591833824 y_0!1_2!2 +44.06345849925424 y_0!2_2!2 +80.07400285317439 y_0!3_2!2 +75.3902995274754 y_0!4_2!2 -70.43664549692764 y_0!1_2!3 +10.699089972936406 y_0!2_2!3 -24.145376992341426 y_0!3_2!3 -63.21908322511831 y_0!4_2!3 -29.00798855323572 y_0!1_2!4 +87.83328163791779 y_0!2_2!4 -27.129054634832883 y_0!3_2!4 +63.768830551139985 y_0!4_2!4 + lambda_1!1 - mu_1 = 0
 epc_1!2: +64.31336507258447 y_0!1_2!1 -82.45931209899919 y_0!2_2!1 -7.990598934514608 y_0!3_2!1 +22.317608434413486 y_0!4_2!1 +37.27335860694765 y_0!1_2!2 +96.28528482947502 y_0!2_2!2 +90.06332007236827 y_0!3_2!2 -68.21221308837961 y_0!4_2!2 -4.302967758805636 y_0!1_2!3 -91.57395709596025 y_0!2_2!3 -23.63123094102579 y_0!3_2!3 -10.301663122086609 y_0!4_2!3 +18.922467441824324 y_0!1_2!4 +18.081090387235292 y_0!2_2!4 +14.143332038590302 y_0!3_2!4 -69.84800458213095 y_0!4_2!4 + lambda_1!2 - mu_1 = 0
 epc_1!3: +29.714692086285424 y_0!1_2!1 +17.109340513189892 y_0!2_2!1 +88.07781091901163 y_0!3_2!1 -36.87674712529863 y_0!4_2!1 +22.166041848126653 y_0!1_2!2 -51.51911670571898 y_0!2_2!2 +8.429162765052254 y_0!3_2!2 +88.90215668169944 y_0!4_2!2 -5.487443517351892 y_0!1_2!3 -63.95472597434579 y_0!2_2!3 +14.094889922548077 y_0!3_2!3 +83.68816122613322 y_0!4_2!3 -54.9082355382301 y_0!1_2!4 -82.01981049668636 y_0!2_2!4 +50.48611064480738 y_0!3_2!4 -48.043156467061834 y_0!4_2!4 + lambda_1!3 - mu_1 = 0
 epc_1!4: +6.25987614762731 y_0!1_2!1 -93.21252051478017 y_0!2_2!1 -72.79062588951044 y_0!3_2!1 -92.27030248980448 y_0!4_2!1 -16.28596958928044 y_0!1_2!2 +13.948788188534039 y_0!2_2!2 +22.919735436481602 y_0!3_2!2 +60.16052486830415 y_0!4_2!2 -78.34112251405081 y_0!1_2!3 -31.06986374062157 y_0!2_2!3 +77.84247460901307 y_0!3_2!3 +16.278388132094108 y_0!4_2!3 -44.27065058929003 y_0!1_2!4 -10.523206404283854 y_0!2_2!4 +45.869692095457964 y_0!3_2!4 +13.013218971654723 y_0!4_2!4 + lambda_1!4 - mu_1 = 0
 dc_1: x_1!1 + x_1!2 + x_1!3 + x_1!4 = 1
 bc_1!1: lambda_1!1 +296.7738875673889 x_1!1 <= 296.7738875673889
 bc_1!2: lambda_1!2 +296.7738875673889 x_1!2 <= 296.7738875673889
 bc_1!3: lambda_1!3 +296.7738875673889 x_1!3 <= 296.7738875673889
 bc_1!4: lambda_1!4 +296.7738875673889 x_1!4 <= 296.7738875673889
 sum_1!1: y_0!1_2!1 - x_0!1 - x_2!1 >= -1
 idk_1!1!0: y_0!1_2!1 - x_0!1 <= 0
 idk_1!1!2: y_0!1_2!1 - x_2!1 <= 0
 sum_1!2: y_0!2_2!1 - x_0!2 - x_2!1 >= -1
 idk_1!2!0: y_0!2_2!1 - x_0!2 <= 0
 idk_1!2!2: y_0!2_2!1 - x_2!1 <= 0
 sum_1!3: y_0!3_2!1 - x_0!3 - x_2!1 >= -1
 idk_1!3!0: y_0!3_2!1 - x_0!3 <= 0
 idk_1!3!2: y_0!3_2!1 - x_2!1 <= 0
 sum_1!4: y_0!4_2!1 - x_0!4 - x_2!1 >= -1
 idk_1!4!0: y_0!4_2!1 - x_0!4 <= 0
 idk_1!4!2: y_0!4_2!1 - x_2!1 <= 0
 sum_1!5: y_0!1_2!2 - x_0!1 - x_2!2 >= -1
 idk_1!5!0: y_0!1_2!2 - x_0!1 <= 0
 idk_1!5!2: y_0!1_2!2 - x_2!2 <= 0
 sum_1!6: y_0!2_2!2 - x_0!2 - x_2!2 >= -1
 idk_1!6!0: y_0!2_2!2 - x_0!2 <= 0
 idk_1!6!2: y_0!2_2!2 - x_2!2 <= 0
 sum_1!7: y_0!3_2!2 - x_0!3 - x_2!2 >= -1
 idk_1!7!0: y_0!3_2!2 - x_0!3 <= 0
 idk_1!7!2: y_0!3_2!2 - x_2!2 <= 0
 sum_1!8: y_0!4_2!2 - x_0!4 - x_2!2 >= -1
 idk_1!8!0: y_0!4_2!2 - x_0!4 <= 0
 idk_1!8!2: y_0!4_2!2 - x_2!2 <= 0
 sum_1!9: y_0!1_2!3 - x_0!1 - x_2!3 >= -1
 idk_1!9!0: y_0!1_2!3 - x_0!1 <= 0
 idk_1!9!2: y_0!1_2!3 - x_2!3 <= 0
 sum_1!10: y_0!2_2!3 - x_0!2 - x_2!3 >= -1
 idk_1!10!0: y_0!2_2!3 - x_0!2 <= 0
 idk_1!10!2: y_0!2_2!3 - x_2!3 <= 0
 sum_1!11: y_0!3_2!3 - x_0!3 - x_2!3 >= -1
 idk_1!11!0: y_0!3_2!3 - x_0!3 <= 0
 idk_1!11!2: y_0!3_2!3 - x_2!3 <= 0
 sum_1!12: y_0!4_2!3 - x_0!4 - x_2!3 >= -1
 idk_1!12!0: y_0!4_2!3 - x_0!4 <= 0
 idk_1!12!2: y_0!4_2!3 - x_2!3 <= 0
 sum_1!13: y_0!1_2!4 - x_0!1 - x_2!4 >= -1
 idk_1!13!0: y_0!1_2!4 - x_0!1 <= 0
 idk_1!13!2: y_0!1_2!4 - x_2!4 <= 0
 sum_1!14: y_0!2_2!4 - x_0!2 - x_2!4 >= -1
 idk_1!14!0: y_0!2_2!4 - x_0!2 <= 0
 idk_1!14!2: y_0!2_2!4 - x_2!4 <= 0
 sum_1!15: y_0!3_2!4 - x_0!3 - x_2!4 >= -1
 idk_1!15!0: y_0!3_2!4 - x_0!3 <= 0
 idk_1!15!2: y_0!3_2!4 - x_2!4 <= 0
 sum_1!16: y_0!4_2!4 - x_0!4 - x_2!4 >= -1
 idk_1!16!0: y_0!4_2!4 - x_0!4 <= 0
 idk_1!16!2: y_0!4_2!4 - x_2!4 <= 0
 epc_2!1: +71.83882020710988 y_0!1_1!1 +89.48434379112535 y_0!2_1!1 +5.090086520645414 y_0!3_1!1 -51.59832996960769 y_0!4_1!1 +3.3244912872210506 y_0!1_1!2 +28.896129407568253 y_0!2_1!2 +47.70365061617869 y_0!3_1!2 +32.8110023303073 y_0!4_1!2 +41.407650564384994 y_0!1_1!3 +52.718675179446166 y_0!2_1!3 -40.54868972328294 y_0!3_1!3 +83.14746492828664 y_0!4_1!3 -44.01967649913736 y_0!1_1!4 +30.04148701527899 y_0!2_1!4 +42.291416010922234 y_0!3_1!4 +79.16223530354142 y_0!4_1!4 + lambda_2!1 - mu_2 = 0
 epc_2!2: +36.69080079595366 y_0!1_1!1 +33.112686613944504 y_0!2_1!1 +96.06137841564828 y_0!3_1!1 +4.4335657972098375 y_0!4_1!1 +21.190729771783893 y_0!1_1!2 -8.986966280459768 y_0!2_1!2 -42.0671662396348 y_0!3_1!2 +38.967200226082014 y_0!4_1!2 -59.57425393098556 y_0!1_1!3 -6.833872975749912 y_0!2_1!3 +9.029342668888034 y_0!3_1!3 -30.450127236927173 y_0!4_1!3 -75.57951711123982 y_0!1_1!4 +76.02822550459769 y_0!2_1!4 +52.30201214417784 y_0!3_1!4 -73.31245078955995 y_0!4_1!4 + lambda_2!2 - mu_2 = 0
 epc_2!3: +44.2355186387197 y_0!1_1!1 -99.28463697451748 y_0!2_1!1 -55.13980929381896 y_0!3_1!1 -96.75060078946596 y_0!4_1!1 +41.75029218771806 y_0!1_1!2 +97.4892505928714 y_0!2_1!2 -9.194346267105246 y_0!3_1!2 -50.02269000243042 y_0!4_1!2 -81.34740542789085 y_0!1_1!3 +14.937817413579424 y_0!2_1!3 -32.77941716229 y_0!3_1!3 +76.80995908197113 y_0!4_1!3 +19.49180579955876 y_0!1_1!4 -32.6499985590323 y_0!2_1!4 -33.689054732230645 y_0!3_1!4 -83.49051444809959 y_0!4_1!4 + lambda_2!3 - mu_2 = 0
 epc_2!4: +50.87965390597594 y_0!1_1!1 +23.198703777559544 y_0!2_1!1 -9.19141369431631 y_0!3_1!1 -71.63215986957552 y_0!4_1!1 +29.89875778630622 y_0!1_1!2 -79.19025172222987 y_0!2_1!2 +37.5868574935713 y_0!3_1!2 -65.19101447602537 y_0!4_1!2 +49.5058616418419 y_0!1_1!3 +34.20879226935094 y_0!2_1!3 +46.046184394913865 y_0!3_1!3 +92.49219239294416 y_0!4_1!3 -12.806883442457632 y_0!1_1!4 +42.80220489428561 y_0!2_1!4 -26.82247176172865 y_0!3_1!4 +2.060660942898565 y_0!4_1!4 + lambda_2!4 - mu_2 = 0
 dc_2: x_2!1 + x_2!2 + x_2!3 + x_2!4 = 1
 bc_2!1: lambda_2!1 +296.7738875673889 x_2!1 <= 296.7738875673889
 bc_2!2: lambda_2!2 +296.7738875673889 x_2!2 <= 296.7738875673889
 bc_2!3: lambda_2!3 +296.7738875673889 x_2!3 <= 296.7738875673889
 bc_2!4: lambda_2!4 +296.7738875673889 x_2!4 <= 296.7738875673889
 sum_2!1: y_0!1_1!1 - x_0!1 - x_1!1 >= -1
 idk_2!1!0: y_0!1_1!1 - x_0!1 <= 0
 idk_2!1!1: y_0!1_1!1 - x_1!1 <= 0
 sum_2!2: y_0!2_1!1 - x_0!2 - x_1!1 >= -1
 idk_2!2!0: y_0!2_1!1 - x_0!2 <= 0
 idk_2!2!1: y_0!2_1!1 - x_1!1 <= 0
 sum_2!3: y_0!3_1!1 - x_0!3 - x_1!1 >= -1
 idk_2!3!0: y_0!3_1!1 - x_0!3 <= 0
 idk_2!3!1: y_0!3_1!1 - x_1!1 <= 0
 sum_2!4: y_0!4_1!1 - x_0!4 - x_1!1 >= -1
 idk_2!4!0: y_0!4_1!1 - x_0!4 <= 0
 idk_2!4!1: y_0!4_1!1 - x_1!1 <= 0
 sum_2!5: y_0!1_1!2 - x_0!1 - x_1!2 >= -1
 idk_2!5!0: y_0!1_1!2 - x_0!1 <= 0
 idk_2!5!1: y_0!1_1!2 - x_1!2 <= 0
 sum_2!6: y_0!2_1!2 - x_0!2 - x_1!2 >= -1
 idk_2!6!0: y_0!2_1!2 - x_0!2 <= 0
 idk_2!6!1: y_0!2_1!2 - x_1!2 <= 0
 sum_2!7: y_0!3_1!2 - x_0!3 - x_1!2 >= -1
 idk_2!7!0: y_0!3_1!2 - x_0!3 <= 0
 idk_2!7!1: y_0!3_1!2 - x_1!2 <= 0
 sum_2!8: y_0!4_1!2 - x_0!4 - x_1!2 >= -1
 idk_2!8!0: y_0!4_1!2 - x_0!4 <= 0
 idk_2!8!1: y_0!4_1!2 - x_1!2 <= 0
 sum_2!9: y_0!1_1!3 - x_0!1 - x_1!3 >= -1
 idk_2!9!0: y_0!1_1!3 - x_0!1 <= 0
 idk_2!9!1: y_0!1_1!3 - x_1!3 <= 0
 sum_2!10: y_0!2_1!3 - x_0!2 - x_1!3 >= -1
 idk_2!10!0: y_0!2_1!3 - x_0!2 <= 0
 idk_2!10!1: y_0!2_1!3 - x_1!3 <= 0
 sum_2!11: y_0!3_1!3 - x_0!3 - x_1!3 >= -1
 idk_2!11!0: y_0!3_1!3 - x_0!3 <= 0
 idk_2!11!1: y_0!3_1!3 - x_1!3 <= 0
 sum_2!12: y_0!4_1!3 - x_0!4 - x_1!3 >= -1
 idk_2!12!0: y_0!4_1!3 - x_0!4 <= 0
 idk_2!12!1: y_0!4_1!3 - x_1!3 <= 0
 sum_2!13: y_0!1_1!4 - x_0!1 - x_1!4 >= -1
 idk_2!13!0: y_0!1_1!4 - x_0!1 <= 0
 idk_2!13!1: y_0!1_1!4 - x_1!4 <= 0
 sum_2!14: y_0!2_1!4 - x_0!2 - x_1!4 >= -1
 idk_2!14!0: y_0!2_1!4 - x_0!2 <= 0
 idk_2!14!1: y_0!2_1!4 - x_1!4 <= 0
 sum_2!15: y_0!3_1!4 - x_0!3 - x_1!4 >= -1
 idk_2!15!0: y_0!3_1!4 - x_0!3 <= 0
 idk_2!15!1: y_0!3_1!4 - x_1!4 <= 0
 sum_2!16: y_0!4_1!4 - x_0!4 - x_1!4 >= -1
 idk_2!16!0: y_0!4_1!4 - x_0!4 <= 0
 idk_2!16!1: y_0!4_1!4 - x_1!4 <= 0
Bounds
 mu_0 free
 mu_1 free
 mu_2 free
Binary
 x_0!1 x_0!2 x_0!3 x_0!4 x_1!1 x_1!2 x_1!3 x_1!4 x_2!1 x_2!2 x_2!3 x_2!4
End
